
  22    4
  10   10   10   10

   0   0   0   0   0   6 2 3 4 5 6 8 
  10  10  10  10  10   4 11 10 9 7 
   5  10  10  10  10   4 16 14 12 10 
   6  10  10  10  10   3 14 11 10 
   3  10  10  10  10   3 15 10 9 
   6  10  10  10  10   4 21 14 13 11 
   2  10  10  10  10   4 21 16 15 14 
   8  10  10  10  10   4 21 15 14 13 
  10  10  10  10  10   2 14 13 
   5  10  10  10  10   2 21 13 
   7  10  10  10  10   3 19 17 15 
   3  10  10  10  10   3 19 17 15 
   6  10  10  10  10   3 20 18 17 
   8  10  10  10  10   2 19 17 
  10  10  10  10  10   1 18 
   6  10  10  10  10   1 20 
   8  10  10  10  10   1 22
   4  10  10  10  10   1 22
   2  10  10  10  10   1 22
   7  10  10  10  10   1 22
   6  10  10  10  10   1 22
   0   0   0   0   0   0 
